145
1000
394
18
52
33
49
568
86
680
12
346
650
382
143
115
390
148
40
77
115
14
305
458
349
212
265
375
178
85
415
406
374
62
301
300
193
246
336
568
549
397
45
303
330
8
534
30
54
155
361
253
14
37
65
314
442
10
403
290
637
619
604
281
130
367
11
625
136
586
709
208
542
150
280
334
483
150
425
1
85
610
286
124
188
473
143
251
366
317
207
700
245
585
214
85
339
549
370
749
372
490
302
163
282
84
234
92
206
396
396
224
71
426
291
606
242
244
588
169
363
711
65
547
574
381
626
476
656
703
194
162
420
368
546
63
150
377
257
149
718
737
453
604
116
76
132
